c ! encoding i-pc 250
p cnf 426 634
115 -252 0
12 -253 0
229 -254 0
58 -255 0
147 -256 0
248 -257 0
138 -258 0
-139 -260 0
259 -260 0
260 -261 0
29 -261 0
262 -263 0
263 -264 0
-29 -264 0
261 264 -265 0
265 -266 0
4 -266 0
-29 -267 0
267 -268 0
262 -268 0
268 -269 0
-4 -269 0
266 269 -270 0
-50 -271 0
169 -271 0
272 0
273 -274 0
274 -275 0
-169 -275 0
271 275 -276 0
277 -278 0
278 -279 0
239 -279 0
-239 -280 0
279 280 -281 0
281 -282 0
76 -282 0
-239 -283 0
283 -284 0
-76 -284 0
282 284 -285 0
285 -286 0
9 -286 0
281 -287 0
287 -288 0
-9 -288 0
286 288 -289 0
290 -291 0
291 -292 0
89 -292 0
-89 -293 0
292 293 -294 0
-7 -295 0
72 -295 0
232 -295 0
276 -297 0
289 -297 0
294 -297 0
295 -297 0
296 -297 0
297 -298 0
201 -298 0
-50 -299 0
232 -299 0
273 -300 0
300 -301 0
-232 -301 0
299 301 -302 0
302 -303 0
169 -303 0
273 -305 0
304 -305 0
305 -306 0
-169 -306 0
303 306 -307 0
-7 -308 0
72 -308 0
309 -310 0
310 -311 0
-72 -311 0
308 311 -312 0
312 -313 0
177 -313 0
-7 -315 0
314 -315 0
315 -316 0
-177 -316 0
313 316 -317 0
-9 -318 0
307 -319 0
281 -319 0
317 -319 0
318 -319 0
319 -320 0
-201 -320 0
322 -323 0
323 -324 0
93 -324 0
-212 -325 0
-93 -325 0
324 325 -326 0
62 -327 0
328 -329 0
329 -330 0
-62 -330 0
327 330 -331 0
-155 -332 0
-164 -332 0
170 -332 0
-218 -332 0
270 -334 0
321 -334 0
326 -334 0
331 -334 0
332 -334 0
333 -334 0
335 -337 0
336 -337 0
227 -338 0
-7 -339 0
72 -339 0
-155 -339 0
-164 -339 0
-218 -339 0
232 -339 0
296 -341 0
340 -341 0
333 -341 0
276 -342 0
289 -342 0
331 -342 0
339 -342 0
341 -342 0
342 -343 0
201 -343 0
-7 -344 0
62 -344 0
-72 -344 0
155 -344 0
164 -344 0
-170 -344 0
-183 -344 0
218 -344 0
344 -345 0
296 -345 0
345 -346 0
92 -346 0
164 -347 0
-183 -347 0
347 -348 0
218 -348 0
-183 -349 0
164 -349 0
333 -350 0
350 -351 0
-164 -351 0
349 351 -352 0
352 -353 0
-218 -353 0
348 353 -354 0
309 -355 0
355 -356 0
177 -356 0
-7 -357 0
-177 -357 0
356 357 -358 0
-72 -359 0
-170 -359 0
354 -360 0
358 -360 0
359 -360 0
360 -361 0
155 -361 0
-164 -362 0
-218 -362 0
317 -363 0
362 -363 0
333 -363 0
363 -364 0
340 -364 0
364 -365 0
-155 -365 0
361 365 -366 0
366 -367 0
331 -367 0
367 -368 0
-92 -368 0
346 368 -369 0
-9 -370 0
369 -371 0
307 -371 0
281 -371 0
370 -371 0
371 -372 0
-201 -372 0
373 -375 0
265 -375 0
374 -375 0
376 -378 0
322 -378 0
377 -378 0
-227 -379 0
144 -381 0
382 -383 0
383 -384 0
-144 -384 0
387 -390 0
388 -390 0
389 -390 0
380 -391 0
385 -391 0
390 -391 0
-138 -392 0
-248 -396 0
173 -398 0
-173 -399 0
161 -401 0
-161 -402 0
-147 -406 0
-58 -409 0
-229 -411 0
-12 -414 0
63 -416 0
-63 -417 0
77 -419 0
-77 -420 0
-115 -422 0
118 -424 0
-118 -425 0
-1 0
-2 0
3 0
5 0
-6 0
-8 0
10 0
11 0
13 0
14 0
16 0
17 0
18 0
19 0
20 0
-21 0
-22 0
-23 0
24 0
-25 0
26 0
27 0
-28 0
30 0
-31 0
-32 0
33 0
-34 0
-35 0
36 0
37 0
-38 0
-39 0
40 0
42 0
-43 0
44 0
-45 0
-46 0
48 0
-51 0
-52 0
-53 0
54 0
55 0
-56 0
57 0
-59 0
-60 0
-61 0
64 0
65 0
66 0
-67 0
68 0
-69 0
-70 0
71 0
-73 0
-74 0
75 0
79 0
-80 0
81 0
-82 0
83 0
84 0
85 0
-86 0
-87 0
88 0
-90 0
91 0
95 0
96 0
97 0
-98 0
99 0
-100 0
-101 0
102 0
103 0
-104 0
105 0
-106 0
-107 0
108 0
-109 0
-110 0
111 0
112 0
113 0
-114 0
-116 0
117 0
119 0
-120 0
-121 0
122 0
123 0
-124 0
-126 0
127 0
128 0
-129 0
130 0
131 0
-132 0
-133 0
134 0
135 0
-136 0
-137 0
-140 0
-142 0
143 0
145 0
146 0
148 0
-149 0
-150 0
-151 0
-152 0
153 0
154 0
156 0
-157 0
158 0
159 0
-160 0
162 0
165 0
-166 0
-167 0
168 0
171 0
172 0
-174 0
-175 0
176 0
-178 0
179 0
-180 0
-181 0
182 0
-184 0
185 0
-186 0
-187 0
188 0
189 0
-190 0
191 0
192 0
-194 0
195 0
196 0
197 0
-198 0
199 0
-200 0
202 0
-203 0
204 0
205 0
-206 0
-207 0
-208 0
-209 0
-210 0
211 0
-213 0
214 0
-215 0
-216 0
-217 0
219 0
-220 0
221 0
222 0
223 0
-224 0
-225 0
226 0
228 0
230 0
231 0
233 0
-234 0
235 0
-236 0
237 0
238 0
240 0
-241 0
242 0
-243 0
244 0
245 0
-246 0
-247 0
249 0
250 0
-424 426 0
-423 424 0
-421 422 0
-416 418 0
-415 416 0
-414 415 0
-413 414 0
-410 411 0
-407 408 0
-406 407 0
-405 406 0
-400 401 0
-398 400 0
-396 397 0
-395 396 0
-422 423 0
-411 412 0
-408 409 0
-409 410 0
-386 391 0
-392 393 0
-329 330 0
141 328 0
-327 331 0
-324 326 0
-271 276 0
-323 324 0
212 322 325 0
-321 334 0
-62 327 344 0
-363 364 0
-320 321 0
-354 360 0
72 311 314 344 359 0
-7 309 0
-304 305 0
-303 307 0
-316 317 0
-302 303 0
-340 341 364 0
218 332 339 353 362 0
-301 302 0
-300 301 0
-298 321 0
-201 298 343 0
-296 297 341 345 0
-295 297 0
7 295 308 309 315 339 344 357 0
-292 294 0
-307 319 371 0
-291 292 0
-322 323 378 0
49 290 293 318 374 0
-49 290 0
-289 297 342 0
-283 284 0
-287 288 0
-286 289 0
-285 286 0
-332 334 0
-89 292 0
-272 274 278 291 300 305 310 323 329 350 355 383 0
-308 312 0
-311 312 0
-288 289 0
-359 360 0
177 296 316 357 0
-372 373 0
163 259 0
-297 298 0
-144 381 0
201 320 372 0
-356 358 0
-378 379 0
-276 297 342 0
-376 378 0
-168 404 0
-346 369 0
-263 264 0
-315 316 0
-299 302 0
139 260 262 0
-362 363 0
232 301 304 0
-294 297 0
-305 306 0
-339 342 0
-259 260 0
-274 275 0
-336 337 0
-330 331 0
-331 334 342 367 0
-312 313 0
-139 262 0
-251 252 253 254 255 256 257 258 399 402 417 420 425 0
-391 392 0
-177 296 313 356 0
-269 270 0
-261 265 0
-368 369 0
-268 269 0
-262 263 268 0
-367 368 0
-383 384 0
-212 322 0
-279 281 0
-267 268 0
-260 261 0
-366 367 0
-281 282 287 319 371 0
-275 276 0
-310 311 0
-183 333 0
-293 294 0
47 277 0
50 271 273 299 0
-371 372 0
-265 266 375 0
-266 270 0
-239 279 0
-365 366 0
-278 279 0
-50 273 0
-270 334 0
-264 265 0
-369 371 0
239 280 283 0
-306 307 0
-325 326 0
-169 271 303 0
76 284 0
-277 278 0
-328 329 0
-403 405 0
-318 319 0
-401 403 0
-9 286 0
-361 366 0
-282 285 0
-319 320 0
15 335 0
29 264 267 0
-154 413 0
-284 285 0
-170 332 340 0
155 332 339 365 0
-72 295 308 314 339 0
164 332 339 351 362 0
183 333 344 347 349 0
9 288 318 370 0
-333 334 341 350 363 0
-334 337 0
198 394 0
-317 319 363 0
-29 261 0
62 330 0
-41 336 0
-337 338 0
170 340 344 359 0
-341 342 0
-342 343 0
-343 373 0
-155 344 361 0
-164 344 347 349 0
-290 291 0
-218 344 348 0
-382 383 0
-344 345 0
-345 346 0
-397 398 0
-92 346 0
-347 348 0
-309 310 355 0
-348 354 0
-349 352 0
-350 351 0
-351 352 0
-352 353 0
-353 354 0
-355 356 0
-314 315 0
-357 358 0
-358 360 0
-360 361 0
-364 365 0
-370 371 0
-373 375 0
-374 375 0
-375 378 0
-313 317 0
-377 378 0
-94 382 0
144 384 0
-418 419 0
-326 334 0
169 275 306 0
-335 337 0
-394 395 0
-419 421 0
-273 274 300 305 0
-280 281 0
61 386 0
